15 40
25
3 11 5 16
3 13 10 14
2 9 8 18
2 7 0 6
3 9 0 13
3 7 0 33
2 11 9 27
2 13 13 14
4 11 7 0
4 13 11 27
5 3 10 11
2 11 7 29
2 2 9 38
3 11 0 22
3 2 7 11
4 5 11 0
4 6 11 5
2 12 3 16
2 1 7 28
5 3 3 13
5 13 2 0
4 12 3 28
4 1 5 27
2 5 8 13
2 6 0 0
% time elapsed: 5.32 s
% time elapsed: 5.32 s
%%%mzn-stat: initTime=0.000411
%%%mzn-stat: solveTime=5.23022
%%%mzn-stat: solutions=70
%%%mzn-stat: variables=51
%%%mzn-stat: propagators=30
%%%mzn-stat: propagations=2133958
%%%mzn-stat: nodes=695671
%%%mzn-stat: failures=342996
%%%mzn-stat: restarts=448
%%%mzn-stat: peakDepth=96
%%%mzn-stat-end
